Problem:    uc_quadratic
Rows:       62
Columns:    100 (70 integer, 70 binary)
Non-zeros:  290
Status:     INTEGER OPTIMAL
Objective:  obj = 136.75 (MINimum)

   No.   Row name        Activity     Lower bound   Upper bound
------ ------------    ------------- ------------- -------------
     1 obj                    136.75                             
     2 cprod[1]                    0            -0             = 
     3 cprod[2]                    0            -0             = 
     4 cprod[3]                    0            -0             = 
     5 cprod[4]                    0            -0             = 
     6 cprod[5]                    0            -0             = 
     7 cprod[6]                    0            -0             = 
     8 cprod[7]                    0            -0             = 
     9 cprod[8]                    0            -0             = 
    10 cprod[9]                    0            -0             = 
    11 cprod[10]                   0            -0             = 
    12 sqc_[1]                   425           -16               
    13 sqc_[2]                   200           -25               
    14 sqc_[3]                  -100          -100               
    15 sqc_[4]                   -36           -36               
    16 sqc_[5]                    80            -1               
    17 sqc_[6]                  -250          -625               
    18 sqc_[7]                 -2500         -2500               
    19 sqc_[8]                    -9            -9               
    20 sqc_[9]                   -25           -25               
    21 sqc_[10]                 -400          -400               
    22 sqc__[1]                 -625          -625               
    23 sqc__[2]                 -400          -400               
    24 sqc__[3]                 -900          -900               
    25 sqc__[4]                 -400          -400               
    26 sqc__[5]                 -100          -100               
    27 sqc__[6]                -2500         -2500               
    28 sqc__[7]               -10000        -10000               
    29 sqc__[8]                 -900          -900               
    30 sqc__[9]                -2025         -2025               
    31 sqc__[10]               -3600         -3600               
    32 sqc___[1]                -100                        -100 
    33 sqc___[2]                -100                        -100 
    34 sqc___[3]                -300                        -300 
    35 sqc___[4]                -120                        -120 
    36 sqc___[5]                 -10                         -10 
    37 sqc___[6]               -1375                       -1250 
    38 sqc___[7]               -5000                       -5000 
    39 sqc___[8]                 -90                         -90 
    40 sqc___[9]                -225                        -225 
    41 sqc___[10]              -1200                       -1200 
    42 ccost[1]                    5             5             = 
    43 ccost[2]                    3             3             = 
    44 ccost[3]                    5             5             = 
    45 ccost[4]                   10            10             = 
    46 ccost[5]                   20            20             = 
    47 ccost[6]                   35            35             = 
    48 ccost[7]                   10            10             = 
    49 ccost[8]                   50            50             = 
    50 ccost[9]                  100           100             = 
    51 ccost[10]                  25            25             = 
    52 vars[1]                     1             1             = 
    53 vars[2]                     1             1             = 
    54 vars[3]                     1             1             = 
    55 vars[4]                     1             1             = 
    56 vars[5]                     1             1             = 
    57 vars[6]                     1             1             = 
    58 vars[7]                     1             1             = 
    59 vars[8]                     1             1             = 
    60 vars[9]                     1             1             = 
    61 vars[10]                    1             1             = 
    62 cdemand                   100           100             = 

   No. Column name       Activity     Lower bound   Upper bound
------ ------------    ------------- ------------- -------------
     1 x[1]         *              0             0             1 
     2 x[2]         *              0             0             1 
     3 x[3]         *              1             0             1 
     4 x[4]         *              1             0             1 
     5 x[5]         *              0             0             1 
     6 x[6]         *              0             0             1 
     7 x[7]         *              1             0             1 
     8 x[8]         *              1             0             1 
     9 x[9]         *              1             0             1 
    10 x[10]        *              1             0             1 
    11 y[1,1]       *              0             0             1 
    12 y[1,2]       *              0             0             1 
    13 y[1,3]       *              0             0             1 
    14 y[1,4]       *              0             0             1 
    15 y[1,5]       *              0             0             1 
    16 y[1,6]       *              1             0             1 
    17 y[2,1]       *              0             0             1 
    18 y[2,2]       *              0             0             1 
    19 y[2,3]       *              0             0             1 
    20 y[2,4]       *              0             0             1 
    21 y[2,5]       *              0             0             1 
    22 y[2,6]       *              1             0             1 
    23 y[3,1]       *              0             0             1 
    24 y[3,2]       *              0             0             1 
    25 y[3,3]       *              0             0             1 
    26 y[3,4]       *              0             0             1 
    27 y[3,5]       *              0             0             1 
    28 y[3,6]       *              0             0             1 
    29 y[4,1]       *              0             0             1 
    30 y[4,2]       *              0             0             1 
    31 y[4,3]       *              0             0             1 
    32 y[4,4]       *              0             0             1 
    33 y[4,5]       *              0             0             1 
    34 y[4,6]       *              0             0             1 
    35 y[5,1]       *              0             0             1 
    36 y[5,2]       *              0             0             1 
    37 y[5,3]       *              0             0             1 
    38 y[5,4]       *              0             0             1 
    39 y[5,5]       *              0             0             1 
    40 y[5,6]       *              1             0             1 
    41 y[6,1]       *              0             0             1 
    42 y[6,2]       *              0             0             1 
    43 y[6,3]       *              0             0             1 
    44 y[6,4]       *              0             0             1 
    45 y[6,5]       *              1             0             1 
    46 y[6,6]       *              0             0             1 
    47 y[7,1]       *              0             0             1 
    48 y[7,2]       *              0             0             1 
    49 y[7,3]       *              0             0             1 
    50 y[7,4]       *              0             0             1 
    51 y[7,5]       *              0             0             1 
    52 y[7,6]       *              0             0             1 
    53 y[8,1]       *              0             0             1 
    54 y[8,2]       *              0             0             1 
    55 y[8,3]       *              0             0             1 
    56 y[8,4]       *              0             0             1 
    57 y[8,5]       *              0             0             1 
    58 y[8,6]       *              0             0             1 
    59 y[9,1]       *              0             0             1 
    60 y[9,2]       *              0             0             1 
    61 y[9,3]       *              0             0             1 
    62 y[9,4]       *              0             0             1 
    63 y[9,5]       *              0             0             1 
    64 y[9,6]       *              0             0             1 
    65 y[10,1]      *              0             0             1 
    66 y[10,2]      *              0             0             1 
    67 y[10,3]      *              0             0             1 
    68 y[10,4]      *              0             0             1 
    69 y[10,5]      *              0             0             1 
    70 y[10,6]      *              0             0             1 
    71 cost[1]                 13.75                             
    72 cost[2]                    15                             
    73 cost[3]                     0                             
    74 cost[4]                     0                             
    75 cost[5]                    24                             
    76 cost[6]                    84                             
    77 cost[7]                     0                             
    78 cost[8]                     0                             
    79 cost[9]                     0                             
    80 cost[10]                    0                             
    81 prod[1]                    25                             
    82 prod[2]                    20                             
    83 prod[3]                     0                             
    84 prod[4]                     0                             
    85 prod[5]                    10                             
    86 prod[6]                    45                             
    87 prod[7]                     0                             
    88 prod[8]                     0                             
    89 prod[9]                     0                             
    90 prod[10]                    0                             
    91 sq_prod[1]                625             0               
    92 sq_prod[2]                400             0               
    93 sq_prod[3]                  0             0               
    94 sq_prod[4]                  0             0               
    95 sq_prod[5]                100             0               
    96 sq_prod[6]               2000             0               
    97 sq_prod[7]                  0             0               
    98 sq_prod[8]                  0             0               
    99 sq_prod[9]                  0             0               
   100 sq_prod[10]                 0             0               

Integer feasibility conditions:

KKT.PE: max.abs.err = 0.00e+00 on row 0
        max.rel.err = 0.00e+00 on row 0
        High quality

KKT.PB: max.abs.err = 5.68e-14 on row 33
        max.rel.err = 3.55e-15 on row 3
        High quality

End of output
